
  32    4
  10   10   10   10

   0   0   0   0   0   2 2 3 
   2  10  10  10  10   1 4 
   2  10  10  10  10   1 4 
  10  10  10  10  10   1 5 
   6  10  10  10  10   1 6 
   7  10  10  10  10   3 10 8 7 
   2  10  10  10  10   1 9 
   8  10  10  10  10   1 9 
   9  10  10  10  10   1 11 
   7  10  10  10  10   1 11 
  10  10  10  10  10   1 12 
   5  10  10  10  10   1 13 
   9  10  10  10  10   1 14 
   3  10  10  10  10   1 15 
   2  10  10  10  10   2 17 16 
   4  10  10  10  10   1 18 
   7  10  10  10  10   1 18 
   1  10  10  10  10   1 19 
   6  10  10  10  10   1 20 
   5  10  10  10  10   2 22 21 
  10  10  10  10  10   1 23 
   3  10  10  10  10   1 23 
   3  10  10  10  10   2 25 24 
  10  10  10  10  10   1 26 
   3  10  10  10  10   1 26 
   4  10  10  10  10   1 27 
   3  10  10  10  10   1 28 
  10  10  10  10  10   1 29 
   7  10  10  10  10   1 30 
   9  10  10  10  10   1 31 
   7  10  10  10  10   1 32
   0   0   0   0   0   0 
